66,75
8,51
17,58
107,78
160,83
79,12
171,5
83,69
128,37
107,97
103,98
181,64
95,51
95,14
10,60
109,34
61,32
199,20
73,93
155,26
100,4
127,43
173,2
175,75
162,18
181,44
124,98
29,94
160,51
97,91
4,83
59,24
136,96
39,58
10,54
94,5
174,19
126,95
108,32
95,44
67,22
101,2
158,62
47,27
99,91
22,82
35,16
32,57
63,24
167,9
